27 127
16 36
19 129
18 168
5 149
91 19
16 36
80 40
67 82
43 44
22 34
2 181
64 52
15 174
12 83
61 57
12 10
80 22
64 40
25 102
2 67
62 62
55 45
13 49
7 45
88 15
8 34
55 77
39 80
46 23
5 84
16 53
74 42
25 30
63 71
1 150
17 71
63 27
10 177
55 18
81 19
71 47
14 189
99 56
15 107
91 38
46 83
14 121
60 15
48 3
72 29
54 17
78 35
4 113
86 8
94 25
14 127
57 83
1 122
3 26
45 77
32 99
15 162
58 5
53 30
86 42
52 97
29 110
11 24
38 15
24 194
71 22
4 100
17 80
83 24
90 34
96 12
47 93
25 145
14 193
27 8
3 51
65 12
25 13
13 113
5 173
83 14
60 8
2 118
100 56
4 92
17 103
32 31
4 4
20 73
95 46
19 106
13 13
76 35
11 66
